; benchmark generated from python API
(set-info :status unknown)
(declare-datatypes ((RealState 0)) (((RMk1 (rval1 Real)) (RMk2 (rval2 Real)))))
 (declare-fun yuscore2dollarskuscore60 () Real)
(declare-fun t31uscore0dollarskuscore1 () Real)
(declare-fun xuscore2dollarskuscore52 () Real)
(declare-fun stuscore2dollarskuscore60 () Real)
(assert
 (let (($x137 (exists ((ts31uscore1_st RealState) (val!98 Real) )(let (($x239 (<= (+ (* (- 2.0) t31uscore0dollarskuscore1) yuscore2dollarskuscore60) 12.0)))
 (let (($x33 (<= yuscore2dollarskuscore60 (+ 10.0 xuscore2dollarskuscore52))))
 (let (($x65 (>= yuscore2dollarskuscore60 (- 5.0 (* 2.0 xuscore2dollarskuscore52)))))
 (let (($x98 (<= yuscore2dollarskuscore60 12.0)))
 (let (($x14 (>= yuscore2dollarskuscore60 1.0)))
 (let (($x179 (= stuscore2dollarskuscore60 3.0)))
 (let (($x235 (< xuscore2dollarskuscore52 2.0)))
 (let (($x220 (>= t31uscore0dollarskuscore1 0.0)))
 (let (($x109 (<= (+ (rval2 ts31uscore1_st) xuscore2dollarskuscore52) 2.0)))
 (let (($x164 (and (<= 0.0 (rval2 ts31uscore1_st)) (<= (rval2 ts31uscore1_st) t31uscore0dollarskuscore1))))
 (let (($x213 (and (and (and (and (and (=> $x164 $x109) $x220) $x235) $x179) $x14) $x98)))
 (let (($x94 (not (= ts31uscore1_st (RMk1 val!98)))))
 (and $x94 (=> (and (and $x213 $x65) $x33) $x239)))))))))))))))
 ))
 (not $x137)))
(check-sat)
